GLPSOL--GLPK LP/MIP Solver 5.0
Parameter(s) specified in the command line:
 --lp ./Instances/small/optimizedinstance72.lp -o ./Instances/small/solutions/optimizedinstance72.out
 --log ./Instances/small/solutions/optimizedinstance72.glplog
Reading problem data from './Instances/small/optimizedinstance72.lp'...
372 rows, 375 columns, 27392 non-zeros
375 integer variables, all of which are binary
752 lines were read
GLPK Integer Optimizer 5.0
372 rows, 375 columns, 27392 non-zeros
375 integer variables, all of which are binary
Preprocessing...
372 rows, 375 columns, 27392 non-zeros
375 integer variables, all of which are binary
Scaling...
 A: min|aij| =  1.000e+00  max|aij| =  2.000e+02  ratio =  2.000e+02
GM: min|aij| =  7.098e-02  max|aij| =  1.409e+01  ratio =  1.985e+02
EQ: min|aij| =  5.051e-03  max|aij| =  1.000e+00  ratio =  1.980e+02
2N: min|aij| =  3.906e-03  max|aij| =  1.625e+00  ratio =  4.160e+02
Constructing initial basis...
Size of triangular part is 372
Solving LP relaxation...
GLPK Simplex Optimizer 5.0
372 rows, 375 columns, 27392 non-zeros
*     0: obj =  -0.000000000e+00 inf =   0.000e+00 (375)
*   308: obj =   2.222834858e+03 inf =   0.000e+00 (0) 1
OPTIMAL LP SOLUTION FOUND
Integer optimization begins...
Long-step dual simplex will be used
+   308: mip =     not found yet <=              +inf        (1; 0)
+   731: mip =     not found yet <=   2.197000000e+03        (105; 0)
+   787: >>>>>   1.210000000e+02 <=   2.197000000e+03        (154; 0)
+  1334: mip =   1.210000000e+02 <=   2.180000000e+03        (278; 2)
+  1760: mip =   1.210000000e+02 <=   2.179000000e+03        (390; 3)
+  2101: >>>>>   1.250000000e+02 <=   2.179000000e+03        (494; 3)
+  2724: mip =   1.250000000e+02 <=   2.172000000e+03        (603; 9)
+  3269: mip =   1.250000000e+02 <=   2.167000000e+03        (741; 10)
+  3872: mip =   1.250000000e+02 <=   2.161000000e+03        (881; 12)
+  4413: mip =   1.250000000e+02 <=   2.158000000e+03        (1012; 13)
+  5162: mip =   1.250000000e+02 <=   2.148000000e+03        (1133; 15)
+  5856: mip =   1.250000000e+02 <=   2.140000000e+03        (1264; 17)
+  6271: mip =   1.250000000e+02 <=   2.133000000e+03        (1393; 18)
Time used: 60.0 secs.  Memory used: 5.8 Mb.
+  6727: mip =   1.250000000e+02 <=   2.129000000e+03        (1521; 19)
+  7407: mip =   1.250000000e+02 <=   2.117000000e+03        (1639; 21)
+  7839: mip =   1.250000000e+02 <=   2.109000000e+03        (1772; 22)
+  8461: mip =   1.250000000e+02 <=   2.098000000e+03        (1911; 24)
+  8944: mip =   1.250000000e+02 <=   2.084000000e+03        (2049; 25)
+  9725: mip =   1.250000000e+02 <=   2.082000000e+03        (2182; 27)
+ 10109: mip =   1.250000000e+02 <=   2.082000000e+03        (2318; 28)
+ 10691: mip =   1.250000000e+02 <=   2.071000000e+03        (2449; 29)
+ 11106: mip =   1.250000000e+02 <=   2.067000000e+03        (2579; 30)
+ 11718: mip =   1.250000000e+02 <=   2.039000000e+03        (2712; 32)
+ 11959: >>>>>   1.300000000e+02 <=   2.039000000e+03        (2792; 32)
+ 13158: mip =   1.300000000e+02 <=   2.034000000e+03        (3049; 57)
+ 13764: mip =   1.300000000e+02 <=   2.031000000e+03        (3193; 58)
Time used: 120.1 secs.  Memory used: 7.0 Mb.
+ 14445: mip =   1.300000000e+02 <=   2.021000000e+03        (3326; 60)
+ 15044: mip =   1.300000000e+02 <=   2.018000000e+03        (3455; 62)
+ 15312: mip =   1.300000000e+02 <=   2.018000000e+03        (3588; 62)
+ 15714: mip =   1.300000000e+02 <=   2.008000000e+03        (3734; 63)
+ 16354: mip =   1.300000000e+02 <=   1.999000000e+03        (3869; 65)
+ 16927: mip =   1.300000000e+02 <=   1.967000000e+03        (4014; 67)
+ 17710: mip =   1.300000000e+02 <=   1.957000000e+03        (4149; 69)
+ 18196: mip =   1.300000000e+02 <=   1.953000000e+03        (4306; 70)
+ 18902: mip =   1.300000000e+02 <=   1.945000000e+03        (4495; 72)
+ 19432: mip =   1.300000000e+02 <=   1.939000000e+03        (4630; 74)
+ 20025: mip =   1.300000000e+02 <=   1.936000000e+03        (4775; 75)
+ 20887: mip =   1.300000000e+02 <=   1.929000000e+03        (4972; 78)
Time used: 180.1 secs.  Memory used: 8.1 Mb.
+ 21701: mip =   1.300000000e+02 <=   1.921000000e+03        (5194; 80)
+ 22373: mip =   1.300000000e+02 <=   1.921000000e+03        (5340; 82)
+ 22940: mip =   1.300000000e+02 <=   1.906000000e+03        (5482; 84)
+ 23504: mip =   1.300000000e+02 <=   1.900000000e+03        (5623; 85)
+ 24011: mip =   1.300000000e+02 <=   1.886000000e+03        (5759; 87)
+ 24588: mip =   1.300000000e+02 <=   1.884000000e+03        (5894; 89)
+ 25208: mip =   1.300000000e+02 <=   1.868000000e+03        (6032; 90)
+ 25889: mip =   1.300000000e+02 <=   1.858000000e+03        (6227; 92)
+ 26452: mip =   1.300000000e+02 <=   1.847000000e+03        (6363; 94)
+ 27082: mip =   1.300000000e+02 <=   1.839000000e+03        (6534; 96)
+ 27736: mip =   1.300000000e+02 <=   1.837000000e+03        (6694; 98)
+ 28276: mip =   1.300000000e+02 <=   1.834000000e+03        (6875; 100)
Time used: 240.1 secs.  Memory used: 9.4 Mb.
+ 28982: mip =   1.300000000e+02 <=   1.832000000e+03        (7032; 102)
+ 29569: mip =   1.300000000e+02 <=   1.826000000e+03        (7187; 104)
+ 30240: mip =   1.300000000e+02 <=   1.825000000e+03        (7349; 106)
+ 31073: mip =   1.300000000e+02 <=   1.818000000e+03        (7521; 109)
+ 31731: mip =   1.300000000e+02 <=   1.815000000e+03        (7690; 111)
+ 32322: mip =   1.300000000e+02 <=   1.814000000e+03        (7856; 113)
+ 32894: mip =   1.300000000e+02 <=   1.810000000e+03        (8015; 115)
+ 33492: mip =   1.300000000e+02 <=   1.807000000e+03        (8177; 117)
+ 34206: mip =   1.300000000e+02 <=   1.807000000e+03        (8348; 119)
+ 34846: mip =   1.300000000e+02 <=   1.804000000e+03        (8517; 121)
+ 35435: mip =   1.300000000e+02 <=   1.801000000e+03        (8685; 123)
+ 36135: mip =   1.300000000e+02 <=   1.795000000e+03        (8855; 125)
Time used: 300.1 secs.  Memory used: 10.7 Mb.
+ 36952: mip =   1.300000000e+02 <=   1.791000000e+03        (9025; 128)
+ 37825: mip =   1.300000000e+02 <=   1.786000000e+03        (9202; 131)
+ 38501: mip =   1.300000000e+02 <=   1.783000000e+03        (9370; 133)
+ 39129: mip =   1.300000000e+02 <=   1.781000000e+03        (9529; 135)
+ 39763: mip =   1.300000000e+02 <=   1.779000000e+03        (9700; 137)
+ 40340: mip =   1.300000000e+02 <=   1.773000000e+03        (9870; 139)
+ 40911: mip =   1.300000000e+02 <=   1.770000000e+03        (10013; 141)
+ 41365: mip =   1.300000000e+02 <=   1.769000000e+03        (10143; 142)
+ 41858: mip =   1.300000000e+02 <=   1.766000000e+03        (10270; 144)
+ 42396: mip =   1.300000000e+02 <=   1.762000000e+03        (10418; 146)
+ 43020: mip =   1.300000000e+02 <=   1.761000000e+03        (10542; 148)
+ 43268: mip =   1.300000000e+02 <=   1.759000000e+03        (10660; 149)
Time used: 360.1 secs.  Memory used: 12.2 Mb.
+ 43637: mip =   1.300000000e+02 <=   1.758000000e+03        (10797; 150)
+ 44169: mip =   1.300000000e+02 <=   1.758000000e+03        (10937; 152)
+ 44986: mip =   1.300000000e+02 <=   1.755000000e+03        (11127; 155)
+ 45610: mip =   1.300000000e+02 <=   1.752000000e+03        (11313; 157)
+ 46293: mip =   1.300000000e+02 <=   1.746000000e+03        (11477; 159)
+ 47337: mip =   1.300000000e+02 <=   1.743000000e+03        (11676; 163)
+ 48207: mip =   1.300000000e+02 <=   1.740000000e+03        (11852; 166)
+ 48742: mip =   1.300000000e+02 <=   1.739000000e+03        (12026; 168)
+ 49458: mip =   1.300000000e+02 <=   1.738000000e+03        (12161; 170)
+ 50092: mip =   1.300000000e+02 <=   1.736000000e+03        (12321; 172)
+ 50689: mip =   1.300000000e+02 <=   1.734000000e+03        (12480; 174)
+ 51608: mip =   1.300000000e+02 <=   1.725000000e+03        (12640; 178)
Time used: 420.1 secs.  Memory used: 13.5 Mb.
+ 52251: mip =   1.300000000e+02 <=   1.724000000e+03        (12791; 180)
+ 52640: mip =   1.300000000e+02 <=   1.723000000e+03        (12939; 181)
+ 53385: mip =   1.300000000e+02 <=   1.720000000e+03        (13113; 184)
+ 54079: mip =   1.300000000e+02 <=   1.715000000e+03        (13275; 186)
+ 54626: mip =   1.300000000e+02 <=   1.712000000e+03        (13424; 188)
+ 55154: mip =   1.300000000e+02 <=   1.711000000e+03        (13572; 190)
+ 55739: mip =   1.300000000e+02 <=   1.710000000e+03        (13725; 192)
+ 56431: mip =   1.300000000e+02 <=   1.706000000e+03        (13878; 195)
+ 57018: mip =   1.300000000e+02 <=   1.706000000e+03        (14020; 197)
+ 57590: mip =   1.300000000e+02 <=   1.705000000e+03        (14174; 199)
+ 58435: mip =   1.300000000e+02 <=   1.703000000e+03        (14339; 202)
+ 59070: mip =   1.300000000e+02 <=   1.699000000e+03        (14494; 204)
Time used: 480.1 secs.  Memory used: 14.7 Mb.
+ 59655: mip =   1.300000000e+02 <=   1.697000000e+03        (14653; 206)
+ 60206: mip =   1.300000000e+02 <=   1.696000000e+03        (14810; 208)
+ 60881: mip =   1.300000000e+02 <=   1.694000000e+03        (14976; 210)
+ 61578: mip =   1.300000000e+02 <=   1.691000000e+03        (15129; 213)
+ 62164: mip =   1.300000000e+02 <=   1.690000000e+03        (15263; 215)
+ 62735: mip =   1.300000000e+02 <=   1.690000000e+03        (15424; 217)
+ 63356: mip =   1.300000000e+02 <=   1.689000000e+03        (15574; 219)
+ 63987: mip =   1.300000000e+02 <=   1.687000000e+03        (15725; 221)
+ 64558: mip =   1.300000000e+02 <=   1.686000000e+03        (15869; 223)
+ 64941: mip =   1.300000000e+02 <=   1.686000000e+03        (16027; 224)
+ 65696: mip =   1.300000000e+02 <=   1.683000000e+03        (16195; 227)
+ 66223: mip =   1.300000000e+02 <=   1.680000000e+03        (16350; 229)
Time used: 540.1 secs.  Memory used: 15.8 Mb.
+ 66808: mip =   1.300000000e+02 <=   1.680000000e+03        (16505; 231)
+ 67402: mip =   1.300000000e+02 <=   1.679000000e+03        (16668; 233)
+ 68011: mip =   1.300000000e+02 <=   1.679000000e+03        (16811; 235)
+ 68535: mip =   1.300000000e+02 <=   1.676000000e+03        (16958; 237)
+ 69185: mip =   1.300000000e+02 <=   1.675000000e+03        (17115; 239)
+ 69740: mip =   1.300000000e+02 <=   1.673000000e+03        (17266; 241)
+ 70288: mip =   1.300000000e+02 <=   1.672000000e+03        (17412; 243)
+ 70885: mip =   1.300000000e+02 <=   1.672000000e+03        (17564; 245)
+ 71470: mip =   1.300000000e+02 <=   1.671000000e+03        (17714; 247)
+ 71984: mip =   1.300000000e+02 <=   1.669000000e+03        (17870; 249)
+ 72500: mip =   1.300000000e+02 <=   1.668000000e+03        (18027; 251)
Time used: 600.2 secs.  Memory used: 16.9 Mb.
+ 73107: mip =   1.300000000e+02 <=   1.667000000e+03        (18179; 253)
+ 73642: mip =   1.300000000e+02 <=   1.666000000e+03        (18340; 255)
+ 74386: mip =   1.300000000e+02 <=   1.663000000e+03        (18491; 258)
+ 74959: mip =   1.300000000e+02 <=   1.663000000e+03        (18647; 260)
+ 75662: mip =   1.300000000e+02 <=   1.661000000e+03        (18808; 263)
+ 76242: mip =   1.300000000e+02 <=   1.661000000e+03        (18968; 265)
+ 76791: mip =   1.300000000e+02 <=   1.660000000e+03        (19128; 267)
+ 77420: mip =   1.300000000e+02 <=   1.659000000e+03        (19289; 269)
+ 78002: mip =   1.300000000e+02 <=   1.655000000e+03        (19454; 272)
+ 78520: mip =   1.300000000e+02 <=   1.654000000e+03        (19618; 273)
+ 79079: mip =   1.300000000e+02 <=   1.654000000e+03        (19779; 275)
+ 79761: mip =   1.300000000e+02 <=   1.651000000e+03        (19946; 278)
Time used: 660.2 secs.  Memory used: 18.1 Mb.
+ 80319: mip =   1.300000000e+02 <=   1.649000000e+03        (20115; 280)
+ 81102: mip =   1.300000000e+02 <=   1.648000000e+03        (20262; 283)
+ 81503: mip =   1.300000000e+02 <=   1.647000000e+03        (20431; 284)
+ 82050: mip =   1.300000000e+02 <=   1.647000000e+03        (20587; 286)
+ 82632: mip =   1.300000000e+02 <=   1.645000000e+03        (20754; 289)
+ 83085: mip =   1.300000000e+02 <=   1.644000000e+03        (20921; 290)
+ 83763: mip =   1.300000000e+02 <=   1.642000000e+03        (21078; 293)
+ 84393: mip =   1.300000000e+02 <=   1.641000000e+03        (21268; 295)
+ 84965: mip =   1.300000000e+02 <=   1.640000000e+03        (21430; 297)
+ 85890: mip =   1.300000000e+02 <=   1.638000000e+03        (21601; 301)
+ 86490: mip =   1.300000000e+02 <=   1.637000000e+03        (21748; 303)
+ 87062: mip =   1.300000000e+02 <=   1.635000000e+03        (21898; 305)
Time used: 720.2 secs.  Memory used: 20.0 Mb.
+ 87700: mip =   1.300000000e+02 <=   1.634000000e+03        (22032; 308)
+ 88184: mip =   1.300000000e+02 <=   1.633000000e+03        (22176; 310)
+ 88722: mip =   1.300000000e+02 <=   1.633000000e+03        (22308; 312)
+ 89200: mip =   1.300000000e+02 <=   1.631000000e+03        (22462; 314)
+ 89798: mip =   1.300000000e+02 <=   1.631000000e+03        (22605; 316)
+ 90352: mip =   1.300000000e+02 <=   1.630000000e+03        (22765; 318)
+ 90876: mip =   1.300000000e+02 <=   1.629000000e+03        (22928; 320)
+ 91253: mip =   1.300000000e+02 <=   1.628000000e+03        (23069; 321)
+ 91745: mip =   1.300000000e+02 <=   1.628000000e+03        (23217; 323)
+ 92327: mip =   1.300000000e+02 <=   1.627000000e+03        (23362; 325)
+ 92860: mip =   1.300000000e+02 <=   1.626000000e+03        (23521; 327)
+ 93344: mip =   1.300000000e+02 <=   1.626000000e+03        (23675; 329)
Time used: 780.2 secs.  Memory used: 21.0 Mb.
+ 93929: mip =   1.300000000e+02 <=   1.625000000e+03        (23824; 331)
+ 94613: mip =   1.300000000e+02 <=   1.625000000e+03        (23983; 334)
+ 95168: mip =   1.300000000e+02 <=   1.624000000e+03        (24143; 336)
